CSW07
Position Depot: Random
Horizon for Depot: Small
Position of customers: Cluster
Distribution of the demand: Large
Width of time windows: Wide
Distribution of the service: Small

VEHICLE 
NUMBER 	 CAPACITY 
 8 	 	 562 
 
CUSTOMER
CUST NO. 	 XCOORD.  	 YCOORD. 	 DEMAND 	 READY TIME 	 DUE DATE 	 SERVICE TIME 
 0 	 	 110 	 	 923 	 	 0 	 	 0 	 	 1852 	 	 0 
  1 	 	 908 	 	 838 	 	 57 	 	 1561 	 	 1771 	 	 98 
  2 	 	 105 	 	 786 	 	 54 	 	 829 	 	 1115 	 	 68 
  3 	 	 423 	 	 781 	 	 32 	 	 1319 	 	 1710 	 	 84 
  4 	 	 459 	 	 413 	 	 74 	 	 1501 	 	 1850 	 	 77 
  5 	 	 770 	 	 162 	 	 84 	 	 840 	 	 1271 	 	 80 
  6 	 	 306 	 	 762 	 	 18 	 	 248 	 	 477 	 	 73 
  7 	 	 527 	 	 682 	 	 50 	 	 1421 	 	 1800 	 	 87 
  8 	 	 423 	 	 756 	 	 23 	 	 643 	 	 844 	 	 93 
  9 	 	 263 	 	 767 	 	 84 	 	 1579 	 	 1852 	 	 58 
  10 	 	 825 	 	 250 	 	 79 	 	 1306 	 	 1618 	 	 73 
  11 	 	 108 	 	 666 	 	 15 	 	 -5 	 	 443 	 	 54 
  12 	 	 250 	 	 819 	 	 76 	 	 25 	 	 331 	 	 74 
  13 	 	 803 	 	 108 	 	 42 	 	 1465 	 	 1750 	 	 100 
  14 	 	 801 	 	 271 	 	 81 	 	 1574 	 	 1852 	 	 64 
  15 	 	 96 	 	 858 	 	 30 	 	 -111 	 	 352 	 	 65 
  16 	 	 358 	 	 867 	 	 70 	 	 858 	 	 1181 	 	 59 
  17 	 	 779 	 	 204 	 	 39 	 	 708 	 	 1080 	 	 80 
  18 	 	 378 	 	 812 	 	 9 	 	 586 	 	 875 	 	 79 
  19 	 	 494 	 	 685 	 	 28 	 	 593 	 	 873 	 	 88 
  20 	 	 883 	 	 836 	 	 55 	 	 979 	 	 1199 	 	 100 
  21 	 	 606 	 	 491 	 	 37 	 	 1013 	 	 1342 	 	 70 
  22 	 	 377 	 	 651 	 	 13 	 	 100 	 	 419 	 	 55 
  23 	 	 520 	 	 471 	 	 40 	 	 289 	 	 671 	 	 64 
  24 	 	 499 	 	 417 	 	 7 	 	 553 	 	 942 	 	 94 
  25 	 	 529 	 	 445 	 	 49 	 	 369 	 	 699 	 	 51 
  26 	 	 503 	 	 646 	 	 63 	 	 1041 	 	 1316 	 	 63 
  27 	 	 416 	 	 740 	 	 4 	 	 1647 	 	 1852 	 	 74 
  28 	 	 303 	 	 861 	 	 29 	 	 -42 	 	 419 	 	 66 
  29 	 	 177 	 	 686 	 	 65 	 	 1447 	 	 1660 	 	 52 
  30 	 	 582 	 	 730 	 	 33 	 	 214 	 	 560 	 	 87 
  31 	 	 468 	 	 386 	 	 79 	 	 530 	 	 975 	 	 57 
  32 	 	 361 	 	 736 	 	 77 	 	 -92 	 	 402 	 	 62 
  33 	 	 58 	 	 668 	 	 44 	 	 310 	 	 561 	 	 86 
  34 	 	 580 	 	 403 	 	 21 	 	 711 	 	 1057 	 	 76 
  35 	 	 589 	 	 703 	 	 37 	 	 254 	 	 579 	 	 60 
  36 	 	 381 	 	 787 	 	 2 	 	 1365 	 	 1852 	 	 63 
  37 	 	 193 	 	 742 	 	 73 	 	 555 	 	 1016 	 	 64 
  38 	 	 838 	 	 223 	 	 31 	 	 1054 	 	 1302 	 	 86 
  39 	 	 608 	 	 693 	 	 6 	 	 987 	 	 1199 	 	 85 
  40 	 	 311 	 	 774 	 	 88 	 	 1220 	 	 1606 	 	 53 
  41 	 	 758 	 	 86 	 	 30 	 	 874 	 	 1343 	 	 60 
  42 	 	 724 	 	 238 	 	 16 	 	 772 	 	 1011 	 	 92 
  43 	 	 90 	 	 779 	 	 99 	 	 1464 	 	 1852 	 	 59 
  44 	 	 430 	 	 757 	 	 12 	 	 529 	 	 1024 	 	 59 
  45 	 	 555 	 	 640 	 	 5 	 	 1011 	 	 1298 	 	 64 
  46 	 	 396 	 	 772 	 	 69 	 	 44 	 	 494 	 	 68 
  47 	 	 761 	 	 155 	 	 15 	 	 705 	 	 1107 	 	 80 
  48 	 	 544 	 	 694 	 	 67 	 	 1127 	 	 1353 	 	 76 
  49 	 	 329 	 	 762 	 	 49 	 	 399 	 	 605 	 	 54 
  50 	 	 947 	 	 840 	 	 99 	 	 498 	 	 925 	 	 71 
  51 	 	 833 	 	 86 	 	 19 	 	 850 	 	 1216 	 	 74 
  52 	 	 976 	 	 805 	 	 89 	 	 464 	 	 961 	 	 65 
  53 	 	 328 	 	 761 	 	 2 	 	 -89 	 	 298 	 	 88 
  54 	 	 533 	 	 247 	 	 85 	 	 1156 	 	 1423 	 	 53 
  55 	 	 922 	 	 903 	 	 26 	 	 1071 	 	 1533 	 	 71 
  56 	 	 290 	 	 785 	 	 15 	 	 603 	 	 891 	 	 93 
  57 	 	 849 	 	 120 	 	 70 	 	 985 	 	 1370 	 	 64 
  58 	 	 350 	 	 838 	 	 99 	 	 1100 	 	 1440 	 	 53 
  59 	 	 125 	 	 605 	 	 28 	 	 1205 	 	 1560 	 	 71 
  60 	 	 561 	 	 619 	 	 2 	 	 1398 	 	 1832 	 	 98 
  61 	 	 263 	 	 886 	 	 24 	 	 467 	 	 780 	 	 72 
  62 	 	 117 	 	 694 	 	 28 	 	 863 	 	 1235 	 	 96 
  63 	 	 617 	 	 474 	 	 70 	 	 530 	 	 794 	 	 82 
  64 	 	 221 	 	 771 	 	 44 	 	 784 	 	 1194 	 	 90 
  65 	 	 291 	 	 764 	 	 58 	 	 -46 	 	 428 	 	 97 
  66 	 	 246 	 	 711 	 	 90 	 	 -169 	 	 322 	 	 95 
  67 	 	 926 	 	 807 	 	 13 	 	 1530 	 	 1827 	 	 92 
  68 	 	 587 	 	 682 	 	 96 	 	 1456 	 	 1852 	 	 52 
  69 	 	 931 	 	 798 	 	 33 	 	 1332 	 	 1546 	 	 66 
  70 	 	 510 	 	 324 	 	 59 	 	 1277 	 	 1773 	 	 68 
  71 	 	 248 	 	 805 	 	 69 	 	 1647 	 	 1847 	 	 97 
  72 	 	 558 	 	 635 	 	 60 	 	 1394 	 	 1852 	 	 58 
  73 	 	 783 	 	 134 	 	 13 	 	 657 	 	 1140 	 	 85 
  74 	 	 557 	 	 662 	 	 73 	 	 1016 	 	 1321 	 	 54 
  75 	 	 51 	 	 717 	 	 13 	 	 1103 	 	 1396 	 	 93 
  76 	 	 699 	 	 100 	 	 87 	 	 666 	 	 1113 	 	 75 
  77 	 	 933 	 	 890 	 	 99 	 	 584 	 	 938 	 	 51 
  78 	 	 502 	 	 663 	 	 40 	 	 285 	 	 607 	 	 84 
  79 	 	 375 	 	 377 	 	 56 	 	 1611 	 	 1852 	 	 86 
  80 	 	 239 	 	 748 	 	 95 	 	 1093 	 	 1311 	 	 94 
  81 	 	 587 	 	 806 	 	 72 	 	 1353 	 	 1852 	 	 50 
  82 	 	 357 	 	 857 	 	 5 	 	 1445 	 	 1742 	 	 81 
  83 	 	 533 	 	 629 	 	 99 	 	 962 	 	 1440 	 	 66 
  84 	 	 874 	 	 876 	 	 21 	 	 482 	 	 841 	 	 87 
  85 	 	 44 	 	 776 	 	 17 	 	 567 	 	 870 	 	 58 
  86 	 	 158 	 	 991 	 	 69 	 	 -125 	 	 363 	 	 99 
  87 	 	 498 	 	 775 	 	 46 	 	 854 	 	 1149 	 	 55 
  88 	 	 411 	 	 745 	 	 15 	 	 1143 	 	 1550 	 	 72 
  89 	 	 823 	 	 223 	 	 33 	 	 694 	 	 1099 	 	 85 
  90 	 	 375 	 	 580 	 	 95 	 	 1443 	 	 1852 	 	 91 
  91 	 	 769 	 	 72 	 	 28 	 	 1242 	 	 1513 	 	 89 
  92 	 	 763 	 	 152 	 	 24 	 	 1316 	 	 1525 	 	 95 
  93 	 	 778 	 	 173 	 	 28 	 	 841 	 	 1172 	 	 97 
  94 	 	 371 	 	 903 	 	 83 	 	 264 	 	 693 	 	 58 
  95 	 	 392 	 	 715 	 	 78 	 	 1186 	 	 1462 	 	 84 
  96 	 	 610 	 	 247 	 	 23 	 	 765 	 	 1135 	 	 100 
  97 	 	 360 	 	 745 	 	 12 	 	 667 	 	 967 	 	 88 
  98 	 	 906 	 	 850 	 	 68 	 	 656 	 	 879 	 	 60 
  99 	 	 552 	 	 688 	 	 11 	 	 95 	 	 550 	 	 77 
  100 	 	 871 	 	 819 	 	 40 	 	 417 	 	 844 	 	 61 
 